4733 74
313 2403
1796 3020
2366 2514
4595 4585
4125 3545
3011 2891
1584 1270
3600 2550
4337 1583
156 3315
2357 2145
1509 2716
2789 4723
2108 580
1031 3167
2458 2845
662 4162
3443 165
3766 1197
460 2541
2007 469
617 2173
773 1197
2863 1049
2504 3176
3720 3554
1234 1473
4981 3231
2587 349
4023 1224
276 2090
3839 1804
1795 2016
2669 1564
4354 4326
2439 2632
726 8
3369 3645
542 63
3654 4142
1462 3387
2475 3120
1776 1647
2420 1942
3967 2337
3590 717
2982 671
1886 625
1619 72
